benchmark/results/graph__10-1000-0.10-02_4/graph__10-1000-0.10-02_4_QuintonOs_Benders_primal_sub.lp
\ This file has been generated by DOcplex
\ ENCODING=ISO-8859-1
\Problem name: Quinton Bounded Benders_primal_sub

Maximize
 obj: tau
Subject To
 c1: tau <= 0.001257861635
 c2: y_a0_proc_0 + y_a0_proc_1 - tau = 0
 c3: y_a0_proc_0 <= 0
 c4: y_a0_proc_1 <= 1
 c5: tau <= 0.003649635036
 c6: y_a1_proc_0 + y_a1_proc_1 - tau = 0
 c7: y_a1_proc_0 <= 1
 c8: y_a1_proc_1 <= 0
 c9: tau <= 0.001760563380
 c10: y_a2_proc_0 + y_a2_proc_1 - tau = 0
 c11: y_a2_proc_0 <= 1
 c12: y_a2_proc_1 <= 0
 c13: tau <= 0.000973709834
 c14: y_a3_proc_0 + y_a3_proc_1 - tau = 0
 c15: y_a3_proc_0 <= 0
 c16: y_a3_proc_1 <= 1
 c17: tau <= 0.001136363636
 c18: y_a4_proc_0 + y_a4_proc_1 - tau = 0
 c19: y_a4_proc_0 <= 0
 c20: y_a4_proc_1 <= 1
 c21: tau <= 0.001362397820
 c22: y_a5_proc_0 + y_a5_proc_1 - tau = 0
 c23: y_a5_proc_0 <= 1
 c24: y_a5_proc_1 <= 0
 c25: tau <= 0.000919963201
 c26: y_a6_proc_0 + y_a6_proc_1 - tau = 0
 c27: y_a6_proc_0 <= 1
 c28: y_a6_proc_1 <= 0
 c29: tau <= 0.001088139282
 c30: y_a7_proc_0 + y_a7_proc_1 - tau = 0
 c31: y_a7_proc_0 <= 1
 c32: y_a7_proc_1 <= 0
 c33: tau <= 0.001283697047
 c34: y_a8_proc_1 - tau = 0
 c35: y_a8_proc_1 <= 1
 c36: tau <= 0.000858369099
 c37: y_a9_proc_0 + y_a9_proc_1 - tau = 0
 c38: y_a9_proc_0 <= 0
 c39: y_a9_proc_1 <= 1
 c40: u_a0 - u_a1 - 274 y_a1_proc_0 - 749 y_a1_proc_1 >= 0
 c41: u_a1 - u_a2 - 568 y_a2_proc_0 - 875 y_a2_proc_1 >= 0
 c42: u_a3 - u_a0 - 1218 y_a0_proc_0 - 795 y_a0_proc_1 >= 0
 c43: u_a4 - u_a3 - 1223 y_a3_proc_0 - 1027 y_a3_proc_1 >= -1
 c44: u_a2 - u_a5 - 734 y_a5_proc_0 - 982 y_a5_proc_1 >= 0
 c45: u_a0 - u_a6 - 1087 y_a6_proc_0 - 517 y_a6_proc_1 >= 0
 c46: u_a7 - u_a3 - 1223 y_a3_proc_0 - 1027 y_a3_proc_1 >= -1
 c47: u_a4 - u_a8 - 779 y_a8_proc_1 >= -1
 c48: u_a8 - u_a9 - 1218 y_a9_proc_0 - 1165 y_a9_proc_1 >= 0
 c49: u_a4 - u_a7 - 919 y_a7_proc_0 - 1135 y_a7_proc_1 >= 0
 c50: u_a8 - u_a7 - 919 y_a7_proc_0 - 1135 y_a7_proc_1 >= 0
 c51: u_a5 - u_a9 - 1218 y_a9_proc_0 - 1165 y_a9_proc_1 >= 0
 c52: u_a5 - u_a8 - 779 y_a8_proc_1 >= 0
 c53: u_a2 - u_a7 - 919 y_a7_proc_0 - 1135 y_a7_proc_1 >= 0
 c54: u_a2 - u_a8 - 779 y_a8_proc_1 >= 0
 c55: u_a6 - u_a4 - 902 y_a4_proc_0 - 880 y_a4_proc_1 >= 0
 c56: u_a9 - u_a4 - 902 y_a4_proc_0 - 880 y_a4_proc_1 >= 0
 c57: u_a1 - u_a0 - 795 y_a0_proc_1 >= -1235
 c58: u_a1 - u_a0 - 1218 y_a0_proc_0 >= -1235
 c59: u_a0 - u_a1 - 749 y_a1_proc_1 >= -1212
 c60: u_a0 - u_a1 - 274 y_a1_proc_0 >= -1212
 c61: u_a2 - u_a0 - 795 y_a0_proc_1 >= -1235
 c62: u_a2 - u_a0 - 1218 y_a0_proc_0 >= -1235
 c63: u_a0 - u_a2 - 875 y_a2_proc_1 >= -1212
 c64: u_a0 - u_a2 - 568 y_a2_proc_0 >= -1212
 c65: u_a3 - u_a0 - 795 y_a0_proc_1 >= 0
 c66: u_a3 - u_a0 - 1218 y_a0_proc_0 >= -2446
 c67: u_a0 - u_a3 - 1027 y_a3_proc_1 >= -1
 c68: u_a0 - u_a3 - 1223 y_a3_proc_0 >= -2447
 c69: u_a4 - u_a0 - 795 y_a0_proc_1 >= -1
 c70: u_a4 - u_a0 - 1218 y_a0_proc_0 >= -2447
 c71: u_a0 - u_a4 - 880 y_a4_proc_1 >= 0
 c72: u_a0 - u_a4 - 902 y_a4_proc_0 >= -2446
 c73: u_a5 - u_a0 - 795 y_a0_proc_1 >= -1235
 c74: u_a5 - u_a0 - 1218 y_a0_proc_0 >= -1235
 c75: u_a0 - u_a5 - 982 y_a5_proc_1 >= -1212
 c76: u_a0 - u_a5 - 734 y_a5_proc_0 >= -1212
 c77: u_a6 - u_a0 - 795 y_a0_proc_1 >= -1235
 c78: u_a6 - u_a0 - 1218 y_a0_proc_0 >= -1235
 c79: u_a0 - u_a6 - 517 y_a6_proc_1 >= -1212
 c80: u_a0 - u_a6 - 1087 y_a6_proc_0 >= -1212
 c81: u_a7 - u_a0 - 795 y_a0_proc_1 >= -1235
 c82: u_a7 - u_a0 - 1218 y_a0_proc_0 >= -1235
 c83: u_a0 - u_a7 - 1135 y_a7_proc_1 >= -1212
 c84: u_a0 - u_a7 - 919 y_a7_proc_0 >= -1212
 c85: u_a8 - u_a0 - 795 y_a0_proc_1 >= -1
 c86: u_a0 - u_a8 - 779 y_a8_proc_1 >= 0
 c87: u_a9 - u_a0 - 795 y_a0_proc_1 >= -1
 c88: u_a9 - u_a0 - 1218 y_a0_proc_0 >= -2447
 c89: u_a0 - u_a9 - 1165 y_a9_proc_1 >= 0
 c90: u_a0 - u_a9 - 1218 y_a9_proc_0 >= -2446
 c91: u_a2 - u_a1 - 749 y_a1_proc_1 >= -2447
 c92: u_a2 - u_a1 - 274 y_a1_proc_0 >= -1
 c93: u_a1 - u_a2 - 875 y_a2_proc_1 >= -2446
 c94: u_a1 - u_a2 - 568 y_a2_proc_0 >= 0
 c95: u_a3 - u_a1 - 749 y_a1_proc_1 >= -1235
 c96: u_a3 - u_a1 - 274 y_a1_proc_0 >= -1235
 c97: u_a1 - u_a3 - 1027 y_a3_proc_1 >= -1212
 c98: u_a1 - u_a3 - 1223 y_a3_proc_0 >= -1212
 c99: u_a4 - u_a1 - 749 y_a1_proc_1 >= -1235
 c100: u_a4 - u_a1 - 274 y_a1_proc_0 >= -1235
 c101: u_a1 - u_a4 - 880 y_a4_proc_1 >= -1212
 c102: u_a1 - u_a4 - 902 y_a4_proc_0 >= -1212
 c103: u_a5 - u_a1 - 749 y_a1_proc_1 >= -2447
 c104: u_a5 - u_a1 - 274 y_a1_proc_0 >= -1
 c105: u_a1 - u_a5 - 982 y_a5_proc_1 >= -2446
 c106: u_a1 - u_a5 - 734 y_a5_proc_0 >= 0
 c107: u_a6 - u_a1 - 749 y_a1_proc_1 >= -2447
 c108: u_a6 - u_a1 - 274 y_a1_proc_0 >= -1
 c109: u_a1 - u_a6 - 517 y_a6_proc_1 >= -2446
 c110: u_a1 - u_a6 - 1087 y_a6_proc_0 >= 0
 c111: u_a7 - u_a1 - 749 y_a1_proc_1 >= -2447
 c112: u_a7 - u_a1 - 274 y_a1_proc_0 >= -1
 c113: u_a1 - u_a7 - 1135 y_a7_proc_1 >= -2446
 c114: u_a1 - u_a7 - 919 y_a7_proc_0 >= 0
 c115: u_a8 - u_a1 - 749 y_a1_proc_1 >= -1235
 c116: u_a1 - u_a8 - 779 y_a8_proc_1 >= -1212
 c117: u_a9 - u_a1 - 749 y_a1_proc_1 >= -1235
 c118: u_a9 - u_a1 - 274 y_a1_proc_0 >= -1235
 c119: u_a1 - u_a9 - 1165 y_a9_proc_1 >= -1212
 c120: u_a1 - u_a9 - 1218 y_a9_proc_0 >= -1212
 c121: u_a3 - u_a2 - 875 y_a2_proc_1 >= -1235
 c122: u_a3 - u_a2 - 568 y_a2_proc_0 >= -1235
 c123: u_a2 - u_a3 - 1027 y_a3_proc_1 >= -1212
 c124: u_a2 - u_a3 - 1223 y_a3_proc_0 >= -1212
 c125: u_a4 - u_a2 - 875 y_a2_proc_1 >= -1235
 c126: u_a4 - u_a2 - 568 y_a2_proc_0 >= -1235
 c127: u_a2 - u_a4 - 880 y_a4_proc_1 >= -1212
 c128: u_a2 - u_a4 - 902 y_a4_proc_0 >= -1212
 c129: u_a5 - u_a2 - 875 y_a2_proc_1 >= -2447
 c130: u_a5 - u_a2 - 568 y_a2_proc_0 >= -1
 c131: u_a2 - u_a5 - 982 y_a5_proc_1 >= -2446
 c132: u_a2 - u_a5 - 734 y_a5_proc_0 >= 0
 c133: u_a6 - u_a2 - 875 y_a2_proc_1 >= -2447
 c134: u_a6 - u_a2 - 568 y_a2_proc_0 >= -1
 c135: u_a2 - u_a6 - 517 y_a6_proc_1 >= -2446
 c136: u_a2 - u_a6 - 1087 y_a6_proc_0 >= 0
 c137: u_a7 - u_a2 - 875 y_a2_proc_1 >= -2447
 c138: u_a7 - u_a2 - 568 y_a2_proc_0 >= -1
 c139: u_a2 - u_a7 - 1135 y_a7_proc_1 >= -2446
 c140: u_a2 - u_a7 - 919 y_a7_proc_0 >= 0
 c141: u_a8 - u_a2 - 875 y_a2_proc_1 >= -1235
 c142: u_a2 - u_a8 - 779 y_a8_proc_1 >= -1212
 c143: u_a9 - u_a2 - 875 y_a2_proc_1 >= -1235
 c144: u_a9 - u_a2 - 568 y_a2_proc_0 >= -1235
 c145: u_a2 - u_a9 - 1165 y_a9_proc_1 >= -1212
 c146: u_a2 - u_a9 - 1218 y_a9_proc_0 >= -1212
 c147: u_a4 - u_a3 - 1027 y_a3_proc_1 >= -1
 c148: u_a4 - u_a3 - 1223 y_a3_proc_0 >= -2447
 c149: u_a3 - u_a4 - 880 y_a4_proc_1 >= 0
 c150: u_a3 - u_a4 - 902 y_a4_proc_0 >= -2446
 c151: u_a5 - u_a3 - 1027 y_a3_proc_1 >= -1235
 c152: u_a5 - u_a3 - 1223 y_a3_proc_0 >= -1235
 c153: u_a3 - u_a5 - 982 y_a5_proc_1 >= -1212
 c154: u_a3 - u_a5 - 734 y_a5_proc_0 >= -1212
 c155: u_a6 - u_a3 - 1027 y_a3_proc_1 >= -1235
 c156: u_a6 - u_a3 - 1223 y_a3_proc_0 >= -1235
 c157: u_a3 - u_a6 - 517 y_a6_proc_1 >= -1212
 c158: u_a3 - u_a6 - 1087 y_a6_proc_0 >= -1212
 c159: u_a7 - u_a3 - 1027 y_a3_proc_1 >= -1235
 c160: u_a7 - u_a3 - 1223 y_a3_proc_0 >= -1235
 c161: u_a3 - u_a7 - 1135 y_a7_proc_1 >= -1212
 c162: u_a3 - u_a7 - 919 y_a7_proc_0 >= -1212
 c163: u_a8 - u_a3 - 1027 y_a3_proc_1 >= -1
 c164: u_a3 - u_a8 - 779 y_a8_proc_1 >= 0
 c165: u_a9 - u_a3 - 1027 y_a3_proc_1 >= -1
 c166: u_a9 - u_a3 - 1223 y_a3_proc_0 >= -2447
 c167: u_a3 - u_a9 - 1165 y_a9_proc_1 >= 0
 c168: u_a3 - u_a9 - 1218 y_a9_proc_0 >= -2446
 c169: u_a5 - u_a4 - 880 y_a4_proc_1 >= -1235
 c170: u_a5 - u_a4 - 902 y_a4_proc_0 >= -1235
 c171: u_a4 - u_a5 - 982 y_a5_proc_1 >= -1212
 c172: u_a4 - u_a5 - 734 y_a5_proc_0 >= -1212
 c173: u_a6 - u_a4 - 880 y_a4_proc_1 >= -1235
 c174: u_a6 - u_a4 - 902 y_a4_proc_0 >= -1235
 c175: u_a4 - u_a6 - 517 y_a6_proc_1 >= -1212
 c176: u_a4 - u_a6 - 1087 y_a6_proc_0 >= -1212
 c177: u_a7 - u_a4 - 880 y_a4_proc_1 >= -1235
 c178: u_a7 - u_a4 - 902 y_a4_proc_0 >= -1235
 c179: u_a4 - u_a7 - 1135 y_a7_proc_1 >= -1212
 c180: u_a4 - u_a7 - 919 y_a7_proc_0 >= -1212
 c181: u_a8 - u_a4 - 880 y_a4_proc_1 >= 0
 c182: u_a4 - u_a8 - 779 y_a8_proc_1 >= -1
 c183: u_a9 - u_a4 - 880 y_a4_proc_1 >= 0
 c184: u_a9 - u_a4 - 902 y_a4_proc_0 >= -2446
 c185: u_a4 - u_a9 - 1165 y_a9_proc_1 >= -1
 c186: u_a4 - u_a9 - 1218 y_a9_proc_0 >= -2447
 c187: u_a6 - u_a5 - 982 y_a5_proc_1 >= -2447
 c188: u_a6 - u_a5 - 734 y_a5_proc_0 >= -1
 c189: u_a5 - u_a6 - 517 y_a6_proc_1 >= -2446
 c190: u_a5 - u_a6 - 1087 y_a6_proc_0 >= 0
 c191: u_a7 - u_a5 - 982 y_a5_proc_1 >= -2447
 c192: u_a7 - u_a5 - 734 y_a5_proc_0 >= -1
 c193: u_a5 - u_a7 - 1135 y_a7_proc_1 >= -2446
 c194: u_a5 - u_a7 - 919 y_a7_proc_0 >= 0
 c195: u_a8 - u_a5 - 982 y_a5_proc_1 >= -1235
 c196: u_a5 - u_a8 - 779 y_a8_proc_1 >= -1212
 c197: u_a9 - u_a5 - 982 y_a5_proc_1 >= -1235
 c198: u_a9 - u_a5 - 734 y_a5_proc_0 >= -1235
 c199: u_a5 - u_a9 - 1165 y_a9_proc_1 >= -1212
 c200: u_a5 - u_a9 - 1218 y_a9_proc_0 >= -1212
 c201: u_a7 - u_a6 - 517 y_a6_proc_1 >= -2447
 c202: u_a7 - u_a6 - 1087 y_a6_proc_0 >= -1
 c203: u_a6 - u_a7 - 1135 y_a7_proc_1 >= -2446
 c204: u_a6 - u_a7 - 919 y_a7_proc_0 >= 0
 c205: u_a8 - u_a6 - 517 y_a6_proc_1 >= -1212
 c206: u_a6 - u_a8 - 779 y_a8_proc_1 >= -1235
 c207: u_a9 - u_a6 - 517 y_a6_proc_1 >= -1235
 c208: u_a9 - u_a6 - 1087 y_a6_proc_0 >= -1235
 c209: u_a6 - u_a9 - 1165 y_a9_proc_1 >= -1212
 c210: u_a6 - u_a9 - 1218 y_a9_proc_0 >= -1212
 c211: u_a8 - u_a7 - 1135 y_a7_proc_1 >= -1235
 c212: u_a7 - u_a8 - 779 y_a8_proc_1 >= -1212
 c213: u_a9 - u_a7 - 1135 y_a7_proc_1 >= -1235
 c214: u_a9 - u_a7 - 919 y_a7_proc_0 >= -1235
 c215: u_a7 - u_a9 - 1165 y_a9_proc_1 >= -1212
 c216: u_a7 - u_a9 - 1218 y_a9_proc_0 >= -1212
 c217: u_a9 - u_a8 - 779 y_a8_proc_1 >= -1
 c218: u_a8 - u_a9 - 1165 y_a9_proc_1 >= 0

Bounds
End
