benchmark/results/graph__10-1000-0.10-02_4/graph__10-1000-0.10-02_4_QuintonOs_Benders_primal_sub.txt
solution for: Quinton Bounded Benders_primal_sub
objective: 0.000140036
status: OPTIMAL_SOLUTION(2)
u_a0=0.745
u_a1=0.706
u_a2=0.627
u_a3=0.856
u_a4=0.129
u_a5=0.524
u_a6=0.372
u_a8=0.415
u_a9=0.252
tau=0.000
y_a0_proc_1=0.000
y_a1_proc_0=0.000
y_a2_proc_0=0.000
y_a3_proc_1=0.000
y_a4_proc_1=0.000
y_a5_proc_0=0.000
y_a6_proc_0=0.000
y_a7_proc_0=0.000
y_a8_proc_1=0.000
y_a9_proc_1=0.000
